c SaDiCaL SAT Solver
c Copyright (C) 2018 by Armin Biere JKU
c
c Version 00n 481e664a7ffa9a307d3a0dad517daf5dde1989ef
c Compiler Apple clang version 15.0.0 (clang-1500.3.9.4)
c Options gcc -Wall -O3 -DNDEBUG -DNLOG
c proof path 'tests/tph2.prf'
c
c all options have default values
c
c parsing 'tests/tph2.cnf'
c found 'p cnf 10 25' header
c parsed DIMACS in 0.00 seconds
c 
c
c   time      reduced redundant irredundant
c       space  restarts glue    variables
c           level conflicts size remaining
c
c s 0.00 0.0 0.8 0 0 3 0 1.8 1.8 18 8 80%
c 0 0.00 0.0 0.6 0 0 6 1 1.6 1.6 18 0 0%
c
s UNSATISFIABLE
c
c simplifications:             1           6  conflicts/simplification  100%
c reductions:                  0           0  conflicts/reduction       100%
c restarts:                    0           0  conflicts/restart         100%
c conflicts:                   6        4196  conflicts/sec             100%
c decisions:                   5        3497  decisions/sec             100%
c propagations:               43         0.0  millions/sec               91%
c
c pure:                        0           0% of look-aheads
c look-ahead:                  5         100% of outer decisions        100%
c pruned:                      0           0% of outer conflicts          0%
c generated reducts:           3           0% satisfiable
c average size:                1           7% of all clauses
c pruning failed:              3         100% per reduct
c filter checks:               4         100% of outer satisfied clauses
c average filtered:          0.0           0% per reduct
c assumed literals:            4         1.0  per filter check
c
c collected clauses:        0.00 MB       35% of allocated clauses       91%
c allocated clauses:        0.00 MB       10% of allocated memory        97%
c maximum heap:             0.01 MB        0% of resident set size       80%
c
c looking:                  0.00 sec       0% of process time
c filtering:                0.00 sec       0% of process time
c pruning:                  0.00 sec       0% of process time
c simplifying:              0.00 sec       0% of process time
c
c resident set size:     1008.00 MB
c total process time:       0.00 sec
